; benchmark generated from python API
(set-info :status unknown)
(declare-fun L_1 () Real)
(declare-fun S_1 () Real)
(declare-fun A_1 () Real)
(declare-fun S_2 () Real)
(declare-fun L_2 () Real)
(declare-fun A_2 () Real)
(declare-fun S_3 () Real)
(declare-fun A_3 () Real)
(declare-fun B () Real)
(declare-fun L_0 () Real)
(declare-fun S_0 () Real)
(declare-fun A_0 () Real)
(declare-fun S_4 () Real)
(declare-fun A_4 () Real)
(assert
 (let (($x1046 (<= (+ A_2 (* (- 1.0) S_3) (* (- 1.0) B) (* (- 1.0) L_2)) 0.0)))
 (let (($x34 (>= L_0 0.0)))
 (let (($x714 (>= B 5.0)))
 (let (($x29486 (<= (+ A_2 (* (- 1.0) L_2) (* (- 1.0) S_4)) (- 5.0))))
 (let (($x866 (<= (+ A_3 (* (- 1.0) L_2) (* (- 1.0) S_4)) 0.0)))
 (let (($x29885 (<= 0.0 (+ (* (- 1.0) A_1) (* (/ 1.0 2.0) S_3) (* (/ 1.0 2.0) S_0) L_1))))
 (let ((?x446 (* (- 1.0) L_1)))
 (let ((?x370 (* (- 1.0) S_3)))
 (let ((?x343 (* (- 1.0) A_3)))
 (let (($x872 (<= (+ A_2 (* (- 1.0) L_2) ?x370) 0.0)))
 (let (($x50625 (or $x872 (<= (+ ?x343 A_1 L_2 S_4 ?x370 ?x446) 0.0) (not $x29885))))
 (let ((?x960 (* (- 1.0) S_0)))
 (let ((?x3179 (* (- 2.0) S_4)))
 (let ((?x669 (* (- 2.0) L_2)))
 (let ((?x1095 (* 2.0 A_2)))
 (let (($x28014 (or $x866 (<= (+ (* (- 1.0) S_4) (* 2.0 S_1) ?x960) 0.0) (<= (+ ?x1095 ?x669 ?x3179 S_1 ?x960) 0.0))))
 (let ((?x359 (* (- 1.0) S_4)))
 (let ((?x433 (* (- 1.0) L_2)))
 (let ((?x883 (* (- 1.0) A_0)))
 (let (($x27922 (or $x866 (<= (+ ?x883 (* (- (/ 1.0 2.0)) S_4) (* (/ 3.0 2.0) S_1) L_0) 0.0) (<= (+ A_2 ?x883 ?x433 ?x359 S_1 L_0) 0.0))))
 (let (($x30920 (or $x866 (<= (+ (* (/ 1.0 2.0) A_1) (* (- (/ 1.0 2.0)) L_1) (* (- (/ 1.0 2.0)) S_4)) (- 5.0)) $x29486 (<= (+ (* (- (/ 1.0 3.0)) S_4) (* (/ 1.0 3.0) S_0)) (- 5.0)))))
 (let (($x18867 (<= (+ (* 2.0 A_1) (* (- 2.0) L_1) S_4 (* (- 3.0) S_3)) 0.0)))
 (let (($x27445 (or $x872 (<= (+ (* (/ 1.0 2.0) S_4) ?x370 (* (/ 1.0 2.0) S_0)) 0.0) $x18867)))
 (let ((?x1370 (* (- 2.0) S_3)))
 (let ((?x463 (* (- 1.0) B)))
 (let ((?x339 (* (- 1.0) A_4)))
 (let ((?x4501 (* (/ 1.0 3.0) S_0)))
 (let ((?x7440 (* (/ 2.0 3.0) S_4)))
 (let ((?x4891 (* (- (/ 2.0 3.0)) B)))
 (let ((?x5840 (* (/ 2.0 3.0) A_3)))
 (let ((?x1584 (* (- (/ 2.0 3.0)) A_4)))
 (let (($x50401 (or $x872 (<= (+ ?x1584 ?x5840 ?x4891 ?x7440 ?x370 ?x4501) 0.0) (<= (+ ?x339 A_3 A_1 ?x446 ?x463 S_4 ?x1370) 0.0))))
 (let (($x15621 (<= (+ A_1 ?x370 ?x446) (- 5.0))))
 (let (($x4643 (<= (+ (* (- (/ 1.0 2.0)) A_1) (* (/ 1.0 2.0) L_1) (* (- (/ 1.0 2.0)) S_4) S_2) 0.0)))
 (let ((?x2212 (* (/ 1.0 2.0) B)))
 (let ((?x2204 (* (/ 1.0 2.0) S_0)))
 (let ((?x2283 (* (/ 3.0 2.0) L_2)))
 (let ((?x967 (* (- (/ 1.0 2.0)) A_2)))
 (let (($x5242 (<= (+ ?x343 (* (- 1.0) A_2) A_1 (* 2.0 L_2) S_4 ?x446 B) 0.0)))
 (let (($x892 (= (+ L_2 ?x446) 0.0)))
 (let (($x8495 (<= (+ ?x339 A_3 ?x463 S_4 (* (- 3.0) S_2) (* 2.0 S_0)) 0.0)))
 (let (($x878 (<= (+ A_1 (* (- 1.0) S_2) ?x446) 0.0)))
 (let (($x10826 (<= (+ ?x343 (* (- 1.0) A_2) (* 2.0 L_2) S_4 S_1 B) 0.0)))
 (let (($x52438 (or $x866 (<= (+ ?x1095 ?x359 (* (- 1.0) S_2) (* (- 2.0) B) ?x669) 0.0))))
 (let ((?x3174 (* (- 4.0) L_2)))
 (let ((?x1863 (* (- 4.0) B)))
 (let ((?x3121 (* (- 3.0) S_4)))
 (let ((?x2950 (* 4.0 A_2)))
 (let ((?x1067 (* 3.0 L_2)))
 (let ((?x1858 (* 3.0 B)))
 (let ((?x1107 (* (- 2.0) L_1)))
 (let ((?x1117 (* 2.0 A_1)))
 (let ((?x1137 (* (- 3.0) A_2)))
 (let (($x2249 (<= (+ (* (- 2.0) A_2) S_4 S_0 (* 2.0 B) (* 2.0 L_2)) 0.0)))
 (let ((?x1065 (* 2.0 L_2)))
 (let ((?x1055 (* (- 2.0) A_2)))
 (let (($x5123 (<= (+ ?x339 A_3 ?x1055 A_1 ?x446 B S_4 ?x1065) 0.0)))
 (let (($x32005 (or $x892 $x5123 (<= (+ ?x339 A_3 (* (- (/ 3.0 2.0)) A_2) ?x2212 S_4 ?x2204 ?x2283) 0.0))))
 (let ((?x2177 (* (- (/ 1.0 2.0)) L_2)))
 (let ((?x1996 (* (- (/ 1.0 2.0)) B)))
 (let ((?x351 (* (- 1.0) A_1)))
 (let ((?x2241 (* (/ 1.0 2.0) A_2)))
 (let (($x51165 (or $x892 (<= (+ ?x967 ?x2204 ?x2212 (* (/ 1.0 2.0) L_2)) (- 5.0)) (<= (+ (* (- 1.0) A_2) A_1 ?x446 B L_2) (- 5.0)))))
 (let ((?x381 (* (- 1.0) S_2)))
 (let ((?x347 (* (- 1.0) A_2)))
 (let (($x51624 (or $x878 (<= (+ ?x339 A_3 ?x347 L_2 ?x463 S_4 ?x381 S_0) 0.0))))
 (let ((?x3187 (* (- 3.0) L_2)))
 (let ((?x1371 (* (- 3.0) B)))
 (let ((?x392 (* (- 1.0) S_1)))
 (let ((?x1161 (* 3.0 A_2)))
 (let (($x32699 (or $x892 (<= (+ ?x1055 (* 3.0 S_1) ?x960 (* 2.0 B) ?x1065) 0.0))))
 (let (($x29889 (or $x872 (<= (+ ?x343 L_2 S_4 (* (- (/ 1.0 2.0)) S_3) ?x2204) 0.0) $x29885)))
 (let (($x29162 (<= (- 5.0) (+ ?x351 S_0 L_1))))
 (let (($x28456 (<= (+ (* (/ 1.0 2.0) A_1) (* (- (/ 1.0 2.0)) S_4) ?x1996 (* (- (/ 1.0 2.0)) L_1)) (- 5.0))))
 (let (($x50435 (or $x892 (<= (+ (* (- (/ 3.0 2.0)) A_2) S_3 ?x2204 (* (/ 3.0 2.0) B) ?x2283) 0.0) (<= (+ ?x1055 A_1 ?x446 S_3 (* 2.0 B) ?x1065) 0.0))))
 (let ((?x4688 (* (- (/ 3.0 2.0)) L_1)))
 (let ((?x2267 (* (- (/ 3.0 2.0)) B)))
 (let ((?x3749 (* (- (/ 1.0 2.0)) S_4)))
 (let ((?x4256 (* (/ 3.0 2.0) A_1)))
 (let (($x50720 (or $x866 (<= (+ ?x4256 ?x883 ?x3749 ?x2267 L_0 ?x4688) 0.0) (<= (+ A_2 A_1 ?x883 ?x433 ?x463 ?x359 L_0 ?x446) 0.0))))
 (let (($x52551 (or $x866 (<= (+ ?x1117 ?x359 ?x960 (* (- 2.0) B) ?x1107) 0.0) (<= (+ ?x1095 A_1 ?x669 ?x463 ?x3179 ?x960 ?x446) 0.0))))
 (let ((?x1150 (* 2.0 L_1)))
 (let ((?x1350 (* 2.0 B)))
 (let ((?x2069 (* 2.0 S_0)))
 (let ((?x1149 (* (- 2.0) A_1)))
 (let (($x894 (= (+ L_1 (* (- 1.0) L_0)) 0.0)))
 (let (($x32021 (or $x894 (<= (+ ?x339 A_3 ?x347 ?x351 L_2 S_4 S_0 L_1) 0.0))))
 (let (($x51105 (or $x866 (<= (+ A_2 A_1 ?x433 ?x463 ?x359 ?x392 ?x446) 0.0) (not (<= 0.0 (+ ?x347 ?x1117 ?x392 (* (- 2.0) B) ?x1107 L_2))))))
 (let (($x29322 (<= 0.0 (+ ?x347 ?x1117 ?x392 (* (- 2.0) B) ?x1107 L_2))))
 (let (($x29668 (or $x872 (<= (+ ?x339 A_3 A_1 (* (- 2.0) B) S_4 ?x1370 ?x446) 0.0))))
 (let ((?x2089 (+ (* (- 4.0) A_1) S_4 (* 3.0 S_0) (* 4.0 B) (* 4.0 L_1))))
 (let (($x51688 (or $x892 (<= (+ ?x347 ?x883 (* 2.0 S_1) B L_0 L_2) 0.0))))
 (let (($x51410 (or $x872 (<= (+ ?x1117 S_4 (* (- 3.0) S_3) (* (- 2.0) B) ?x1107) 0.0))))
 (let (($x6736 (<= (+ ?x339 A_3 (* (- 3.0) A_1) ?x1350 S_4 ?x2069 (* 3.0 L_1)) 0.0)))
 (let (($x50444 (or $x866 $x894 (<= (+ (* (- (/ 1.0 2.0)) A_1) ?x3749 S_2 ?x2212 (* (/ 1.0 2.0) L_1)) 0.0))))
 (let (($x50265 (or $x894 (<= (+ (* (- 3.0) A_1) S_3 ?x2069 ?x1858 (* 3.0 L_1)) 0.0))))
 (let (($x51724 (or $x872 (<= (+ (* 3.0 A_1) ?x1370 ?x960 ?x1371 (* (- 3.0) L_1)) 0.0))))
 (let (($x1156 (<= (+ ?x1055 (* 3.0 A_1) ?x960 ?x463 (* (- 3.0) L_1) ?x1065) 0.0)))
 (let (($x96 (>= S_1 S_0)))
 (let (($x99 (>= S_2 S_1)))
 (let (($x102 (>= S_3 S_2)))
 (let (($x105 (>= S_4 S_3)))
 (let (($x107 (>= A_1 A_0)))
 (let (($x108 (>= A_2 A_1)))
 (let (($x109 (>= A_3 A_2)))
 (let (($x110 (>= A_4 A_3)))
 (and $x110 $x109 $x108 $x107 $x105 $x102 $x99 $x96 (or (not (<= 0.0 (+ L_1 ?x433))) $x892) (or (not (<= 0.0 (+ L_0 ?x446))) $x894) (<= (+ A_1 ?x381 ?x463 ?x446) 0.0) (or (<= (+ ?x347 A_1 ?x446 L_2) (- 5.0)) $x892) (or $x894 (<= (+ ?x351 S_1 B L_1) 0.0)) (or $x894 (<= (+ A_2 ?x1149 S_0 B ?x1150 ?x433) 0.0)) (or $x892 (<= (+ ?x347 S_2 B L_2) 0.0)) (or $x892 (<= (+ ?x347 ?x1117 ?x883 ?x463 L_0 ?x1107 L_2) 0.0)) (or $x892 (<= (+ ?x347 ?x1117 ?x392 ?x463 ?x1107 L_2) 0.0)) (or $x892 $x1156) (<= (+ ?x339 L_2 S_4) 0.0) (or $x866 $x894 (<= (+ ?x1095 ?x351 ?x359 ?x463 L_1 ?x669) 0.0)) (or $x894 (<= (+ ?x1149 S_2 S_0 ?x1350 ?x1150) 0.0)) (or $x872 (<= (+ ?x1117 ?x883 ?x370 (* (- 2.0) B) L_0 ?x1107) 0.0)) (or $x872 (<= (+ ?x1117 ?x370 ?x392 (* (- 2.0) B) ?x1107) 0.0)) $x51724 (<= (+ A_2 ?x359 ?x463 ?x433) (- 5.0)) (or $x892 (<= (+ ?x347 S_1 B L_2) (- 5.0))) (or $x892 (<= (+ ?x1137 ?x1117 S_4 B ?x1107 ?x1067) 0.0)) (or $x892 (<= (+ ?x1055 S_3 S_1 ?x1350 ?x1065) 0.0)) (or $x892 (<= (+ ?x1055 A_1 S_3 B ?x446 ?x1065) 0.0)) (or $x878 (<= (+ (* (/ 1.0 3.0) S_3) ?x381 (* (/ 2.0 3.0) S_0)) 0.0)) (or $x894 (<= (+ ?x351 S_0 B L_1) (- 5.0))) (or $x894 (<= (+ ?x343 ?x351 L_2 S_4 S_0 B L_1) 0.0)) (<= (+ A_1 ?x370 ?x463 ?x446) (- 5.0)) (or $x892 (<= (+ ?x339 A_3 ?x1055 A_1 S_4 ?x446 ?x1065) 0.0)) $x50265 $x50444 (or $x894 $x6736) $x51410 (or $x878 (<= (+ (* (/ 1.0 4.0) S_4) ?x381 (* (/ 3.0 4.0) S_0)) 0.0)) (or $x872 (<= (+ ?x370 S_1) (- 5.0))) $x51688 (or $x866 (<= (+ ?x1161 ?x883 ?x3179 ?x1371 L_0 ?x3187) 0.0)) (or $x878 (<= (+ ?x347 L_2 S_4 (* (- 2.0) S_2) ?x2069) 0.0)) (or $x878 (<= (+ ?x347 L_2 S_3 ?x381 S_0) 0.0)) (or $x872 (<= (+ ?x343 A_1 L_2 S_4 ?x370 ?x463 ?x446) 0.0)) (or $x894 (<= ?x2089 0.0)) (or $x892 (<= (+ ?x343 ?x347 A_1 ?x1065 S_4 ?x446) 0.0)) $x29668 (or $x866 (<= (+ ?x1095 ?x351 L_1 ?x359 (* (- 2.0) B) ?x669) 0.0)) (or $x866 (<= (+ ?x4256 ?x3749 ?x392 ?x2267 ?x4688) 0.0) $x29322) $x51105 $x32021 (or $x894 (<= (+ ?x347 ?x351 L_2 S_3 S_0 B L_1) 0.0)) (or $x894 (<= (+ ?x347 ?x1149 L_2 S_4 ?x2069 ?x1350 ?x1150) 0.0)) $x52551 $x50720 $x50435 (or $x866 (<= (+ ?x359 S_2) (- 5.0))) (or $x866 $x28456) (or $x872 (<= (+ ?x883 ?x370 (* 2.0 S_1) L_0) 0.0)) (or $x878 (<= (+ ?x381 S_0) (- 5.0))) (or $x872 (<= (+ ?x1370 (* 3.0 S_1) ?x960) 0.0)) (or $x878 (<= (+ ?x2241 ?x381 ?x2204 ?x1996 ?x2177) 0.0)) (or $x892 (<= (+ ?x1137 S_4 (* 2.0 S_1) ?x1858 ?x1067) 0.0)) (or $x872 (<= (+ (* (- (/ 1.0 2.0)) S_3) ?x2204) (- 5.0)) $x29162) $x29889 $x32699 (or $x866 (<= (+ ?x1161 ?x3179 ?x392 ?x1371 ?x3187) 0.0)) (or $x892 (<= (+ ?x339 A_3 ?x1055 B S_4 S_1 ?x1065) 0.0)) (or $x866 (<= (+ ?x3121 (* 4.0 S_2) ?x960) 0.0)) $x51624 (or $x878 (<= (+ ?x343 L_2 S_4 ?x381 S_0) 0.0)) $x51165 (or $x892 $x5123 (not (<= 0.0 (+ ?x2241 ?x351 ?x2204 ?x1996 L_1 ?x2177)))) $x32005 (or $x892 $x2249 (<= (+ ?x1137 ?x1117 ?x1107 S_4 ?x1858 ?x1067) 0.0)) (or $x866 (<= (+ ?x3179 (* 3.0 S_2) ?x392) 0.0)) (or $x872 (<= (+ S_4 (* (- 3.0) S_3) (* 2.0 S_1)) 0.0)) (or $x866 (<= (+ ?x2950 ?x3121 ?x960 ?x1863 ?x3174) 0.0)) $x52438 (or $x866 (<= (+ ?x883 ?x3179 (* 3.0 S_2) L_0) 0.0)) (or $x892 $x10826) (or $x872 (<= (+ ?x343 L_2 S_4 ?x370 S_1) 0.0)) (or $x878 $x8495) (or $x892 $x5242 (<= (+ ?x343 ?x967 ?x2283 S_4 ?x2204 ?x2212) 0.0)) (or $x872 (<= (+ ?x339 A_3 ?x463 S_4 ?x1370 S_1) 0.0)) (or $x866 $x4643) (or $x872 $x15621 (not $x29162)) $x50401 $x27445 $x30920 $x27922 $x28014 $x50625 (or $x866 (<= (+ ?x3749 (* (/ 1.0 2.0) S_1)) (- 5.0)) $x29486) $x714 $x34 (<= (+ ?x883 S_0 L_0) 0.0) $x1046 (<= (+ ?x343 L_2 S_3) 0.0) (<= (+ ?x347 L_2 S_2) 0.0) (<= (+ ?x351 S_1 L_1) 0.0)))))))))))))))))))))))))))))))))))))))))))))))))))))))))))))))))))))))))))))))))))))))))))))))))))))))))))))
(check-sat)
